objective value:                                   84
lambda[1,19]*                                       3 	(obj:0)
lambda[1,21]*                                       1 	(obj:39)
lambda[0,28]*                                       8 	(obj:0)
lambda[0,35]*                                       1 	(obj:0)
lambda[1,24]*                                       4 	(obj:0)
lambda[0,38]*                                       1 	(obj:45)
lambda[1,27]*                                       2 	(obj:0)
